(declare-fun bvlambda_13_ ()Bool         )
(declare-fun bvlambda_14_ ()Bool         )
(declare-fun a46 () (Array (_ BitVec 10) (_ BitVec 2)))
(declare-fun a47 () (Array (_ BitVec 12) (_ BitVec 4)))
(declare-fun a48 () (Array (_ BitVec 1) (_ BitVec 13)))
(assert
(let (($e3 (_ bv2858 13)))
(let (($e6 (_ bv16382 14)))
(let (($e11 (_ bv0 6)))
(let (($e17 (_ bv0 2)))
(let (($e66 (store a48 false $e3)))
(let (($e67 (select $e66 bvlambda_13_)))
(let (($e107 (concat $e11 false        )))
(let (($e108 (concat $e107 false       )))
(let (($e109 (concat $e108 false       )))
(let (($e110 (concat $e109 false       )))
(let (($e111 (concat $e110 false       )))
(let (($e112 (concat $e111 bvlambda_13_)))
(let (($e113 (concat $e112 false       )))
(let (($e114 (store a48 false $e113)))
(let (($e172 (select $e114        bvlambda_14_)))
(let (($e174 (concat false        $e172)))
(let (($e175      (bvult $e174 $e6  )         ))
(let (($e198 (concat $e17 $e113)))
(let (($e238 (select $e114 true     )))
(let (($e239 ((_ extract 11 0) $e238)))
(let (($e240 (select a47 $e239)))
(let (($e242 (concat        $e11  $e240)))
(let (($e245 (select a46 $e242)))
(let (($e246 (concat $e67 $e245)))
(let (($e247      (bvult $e246 $e198)         ))
             (bvult        $e247         $e175 )
                                                                )))  ) )))                                       )                      )) )                                                         ))))))))                                       ))                     )     )    )  )  )
